gen cost
0 1442
1 1364
2 1326
3 1326
4 1307
5 1287
6 1269
7 1231
8 1231
9 1231
10 1231
11 1231
12 1231
13 1231
14 1231
15 1231
16 1231
17 1231
18 1231
19 1231
20 1231
21 1231
22 1231
23 1231
24 1231
25 1231
26 1231
27 1231
28 1231
29 1231
30 1231
31 1231
32 1231
33 1231
34 1231
35 1231
36 1231
37 1231
38 1231
39 1231
40 1231
41 1231
42 1231
43 1231
44 1231
45 1231
46 1231
47 1231
48 1231
49 1231
